p wcnf 192 240 1
1 1 0
1 2 0
1 3 0
1 4 0
1 5 0
1 6 0
1 7 0
1 8 0
1 9 0
1 10 0
1 11 0
1 12 0
1 1 1 1 1 1 1 1 1 1 1 1 0
1 1 1 1 1 1 1 1 1 1 1 1 0
1 1 1 1 1 1 1 1 1 1 1 1 0
1 1 1 1 1 1 1 1 1 1 1 1 0
1 1 1 1 1 1 1 1 1 1 1 1 0
1 1 1 1 1 1 1 1 1 1 1 1 0
1 1 1 1 1 1 1 1 1 1 1 1 0
1 1 1 1 1 1 1 1 1 1 1 1 0
1 1 1 1 1 1 1 1 1 1 1 1 0
1 1 1 1 1 1 1 1 1 1 1 1 0
1 1 1 1 1 1 1 1 1 1 1 1 0
1 1 1 1 1 1 1 1 1 1 1 1 0
1 1 1 1 1 1 1 1 1 1 1 1 0
1 1 1 1 1 1 1 1 1 1 1 1 0
1 1 1 1 1 1 1 1 1 1 1 1 0
1  0
1 4 3 1 0
1  0
1 7 6 1 0
1  0
1 9 8 2 0
1  0
1 15 14 1 0
1  0
1 17 16 2 0
1  0
1 22 21 5 0
1  0
1 35 34 1 0
1  0
1 37 36 2 0
1  0
1 42 41 5 0
1  0
1 54 53 13 0
1  0
1 83 82 1 0
1  0
1 85 84 2 0
1  0
1 90 89 5 0
1  0
1 102 101 13 0
1  0
1 130 129 33 0
1  0
1 11 10 3 0
1  0
1 19 18 3 0
1  0
1 24 23 6 0
1  0
1 39 38 3 0
1  0
1 44 43 6 0
1  0
1 56 55 14 0
1  0
1 87 86 3 0
1  0
1 92 91 6 0
1  0
1 104 103 14 0
1  0
1 132 131 34 0
1  0
1 12 10 4 0
1  0
1 20 18 4 0
1  0
1 27 26 8 0
1  0
1 40 38 4 0
1  0
1 47 46 8 0
1  0
1 59 58 16 0
1  0
1 88 86 4 0
1  0
1 95 94 8 0
1  0
1 107 106 16 0
1  0
1 135 134 36 0
1  0
1 30 29 10 0
1  0
1 50 49 10 0
1  0
1 62 61 18 0
1  0
1 98 97 10 0
1  0
1 110 109 18 0
1  0
1 138 137 38 0
1  0
1 12 11 7 0
1  0
1 25 23 7 0
1  0
1 28 26 9 0
1  0
1 45 43 7 0
1  0
1 48 46 9 0
1  0
1 66 65 21 0
1  0
1 93 91 7 0
1  0
1 96 94 9 0
1  0
1 114 113 21 0
1  0
1 142 141 41 0
1  0
1 31 29 11 0
1  0
1 51 49 11 0
1  0
1 69 68 23 0
1  0
1 99 97 11 0
1  0
1 117 116 23 0
1  0
1 145 144 43 0
1  0
1 32 29 12 0
1  0
1 52 49 12 0
1  0
1 73 72 26 0
1  0
1 100 97 12 0
1  0
1 121 120 26 0
1  0
1 149 148 46 0
1  0
1 77 76 29 0
1  0
1 125 124 29 0
1  0
1 153 152 49 0
1  0
1 20 19 15 0
1  0
1 25 24 15 0
1  0
1 28 27 17 0
1  0
1 57 55 15 0
1  0
1 60 58 17 0
1  0
1 67 65 22 0
1  0
1 105 103 15 0
1  0
1 108 106 17 0
1  0
1 115 113 22 0
1  0
1 158 157 53 0
1  0
1 31 30 19 0
1  0
1 63 61 19 0
1  0
1 70 68 24 0
1  0
1 111 109 19 0
1  0
1 118 116 24 0
1  0
1 161 160 55 0
1  0
1 32 30 20 0
1  0
1 64 61 20 0
1  0
1 74 72 27 0
1  0
1 112 109 20 0
1  0
1 122 120 27 0
1  0
1 165 164 58 0
1  0
1 78 76 30 0
1  0
1 126 124 30 0
1  0
1 169 168 61 0
1  0
1 32 31 25 0
1  0
1 71 68 25 0
1  0
1 75 72 28 0
1  0
1 119 116 25 0
1  0
1 123 120 28 0
1  0
1 174 173 65 0
1  0
1 79 76 31 0
1  0
1 127 124 31 0
1  0
1 178 177 68 0
1  0
1 80 76 32 0
1  0
1 128 124 32 0
1  0
1 183 182 72 0
1  0
1 188 187 76 0
1  0
1 40 39 35 0
1  0
1 45 44 35 0
1  0
1 48 47 37 0
1  0
1 57 56 35 0
1  0
1 60 59 37 0
1  0
1 67 66 42 0
1  0
1 133 131 35 0
1  0
1 136 134 37 0
1  0
